
  12    4
  10   10   10   10

   0   0   0   0   0   5 2 5 6 7 11 
   4  10  10  10  10   2 4 3 
   2  10  10  10  10   2 9 8 
   4  10  10  10  10   2 9 8 
   9  10  10  10  10   2 10 8 
   9  10  10  10  10   2 9 8 
   6  10  10  10  10   1 8 
   8  10  10  10  10   1 12
   4  10  10  10  10   1 12
   6  10  10  10  10   1 12
   8  10  10  10  10   1 12
   0   0   0   0   0   0 
